12      4       
12      11      12      13      
0       0       0       0       0       3       2       3       4       
10      0       6       9       3       2       8       10      
6       0       6       6       0       1       5       
5       0       0       0       5       1       8       
10      0       0       4       0       3       6       7       10      
10      3       0       6       0       2       9       11      
1       10      0       0       0       1       8       
10      5       1       7       0       2       9       11      
6       2       0       9       10      1       12      
2       0       3       0       0       1       12      
3       0       10      3       6       1       12      
0       0       0       0       0       0       